1 3
7 4
11 10
17 19
23 25
29 26
33 36
36 20
37 40
41 44
46 80
51 10
58 34
60 90
66 88
70 44
77 22
82 29
87 95
99 11
0 0
-6
10
18
-20
24
-26
31
-35
-40
45
55
61
7
-72
76
-80
84
86
91
96
0
